NAME : rnd4_50.tsp.tsp.optbc.tour
TYPE : TOUR
DIMENSION : 50
TOUR_SECTION
1
47
43
44
6
8
5
26
38
41
14
28
42
34
45
9
16
17
3
29
7
50
36
10
19
12
37
33
27
40
30
46
20
23
21
24
48
2
32
35
15
25
11
39
13
4
18
22
49
31
-1